; Declaration for the integrated information Phi of the universe
(declare-const Phi_of_the_universe Real)

; Declaration for the MDL cost of the optimal partition of the universe
(declare-const MDL_cost_of_optimal_partition_of_universe Real)

; Axiom: Phi is the measure of integrated information, equated to the MDL cost
; This links consciousness to the Thiele Machine's minimum description length principle
(assert (= Phi_of_the_universe MDL_cost_of_optimal_partition_of_universe))

; The key assertion: The universe is conscious if Phi > 0
(assert (> Phi_of_the_universe 0.0))

; This introduces the claim of consciousness; consistency depends on prior axioms
(check-sat)